; CASCADE-V attribution fairness proof certificate
; receipt_id: output_003__vocals
; n_sources: 40

(set-logic QF_LRA)

(declare-const w_0 Real)
(declare-const w_1 Real)
(declare-const w_2 Real)
(declare-const w_3 Real)
(declare-const w_4 Real)
(declare-const w_5 Real)
(declare-const w_6 Real)
(declare-const w_7 Real)
(declare-const w_8 Real)
(declare-const w_9 Real)
(declare-const w_10 Real)
(declare-const w_11 Real)
(declare-const w_12 Real)
(declare-const w_13 Real)
(declare-const w_14 Real)
(declare-const w_15 Real)
(declare-const w_16 Real)
(declare-const w_17 Real)
(declare-const w_18 Real)
(declare-const w_19 Real)
(declare-const w_20 Real)
(declare-const w_21 Real)
(declare-const w_22 Real)
(declare-const w_23 Real)
(declare-const w_24 Real)
(declare-const w_25 Real)
(declare-const w_26 Real)
(declare-const w_27 Real)
(declare-const w_28 Real)
(declare-const w_29 Real)
(declare-const w_30 Real)
(declare-const w_31 Real)
(declare-const w_32 Real)
(declare-const w_33 Real)
(declare-const w_34 Real)
(declare-const w_35 Real)
(declare-const w_36 Real)
(declare-const w_37 Real)
(declare-const w_38 Real)
(declare-const w_39 Real)

; --- weight values ---
(assert (= w_0 0.0000000000))
(assert (= w_1 0.1627484157))
(assert (= w_2 0.0000000000))
(assert (= w_3 0.0000000000))
(assert (= w_4 0.0000000000))
(assert (= w_5 0.0000000000))
(assert (= w_6 0.0000000000))
(assert (= w_7 0.0000000000))
(assert (= w_8 0.0000000000))
(assert (= w_9 0.0000000000))
(assert (= w_10 0.0000000000))
(assert (= w_11 0.0000000000))
(assert (= w_12 0.0000000000))
(assert (= w_13 0.0000000000))
(assert (= w_14 0.0000000000))
(assert (= w_15 0.0000000000))
(assert (= w_16 0.0000000000))
(assert (= w_17 0.0000000000))
(assert (= w_18 0.0000000000))
(assert (= w_19 0.0000000000))
(assert (= w_20 0.0000000000))
(assert (= w_21 0.0000000000))
(assert (= w_22 0.0000000000))
(assert (= w_23 0.0000000000))
(assert (= w_24 0.0000000000))
(assert (= w_25 0.0000000000))
(assert (= w_26 0.0000000000))
(assert (= w_27 0.0000000000))
(assert (= w_28 0.0000000000))
(assert (= w_29 0.0000000000))
(assert (= w_30 0.0000000000))
(assert (= w_31 0.0000000000))
(assert (= w_32 0.0000000000))
(assert (= w_33 0.0000000000))
(assert (= w_34 0.0000000000))
(assert (= w_35 0.1699271006))
(assert (= w_36 0.1671111842))
(assert (= w_37 0.1669089384))
(assert (= w_38 0.1668862133))
(assert (= w_39 0.1664181478))

; --- efficiency: sum(weights) ≈ 1.000000 ---
(assert (<= (- (+ w_0 w_1 w_2 w_3 w_4 w_5 w_6 w_7 w_8 w_9 w_10 w_11 w_12 w_13 w_14 w_15 w_16 w_17 w_18 w_19 w_20 w_21 w_22 w_23 w_24 w_25 w_26 w_27 w_28 w_29 w_30 w_31 w_32 w_33 w_34 w_35 w_36 w_37 w_38 w_39) 1.0000000000) 0.001))
(assert (>= (- (+ w_0 w_1 w_2 w_3 w_4 w_5 w_6 w_7 w_8 w_9 w_10 w_11 w_12 w_13 w_14 w_15 w_16 w_17 w_18 w_19 w_20 w_21 w_22 w_23 w_24 w_25 w_26 w_27 w_28 w_29 w_30 w_31 w_32 w_33 w_34 w_35 w_36 w_37 w_38 w_39) 1.0000000000) (- 0.001)))

; --- symmetry: similar sources have equal weights ---
(assert (<= (- w_0 w_6) 0.001))
(assert (>= (- w_0 w_6) (- 0.001)))
(assert (<= (- w_0 w_7) 0.001))
(assert (>= (- w_0 w_7) (- 0.001)))
(assert (<= (- w_0 w_8) 0.001))
(assert (>= (- w_0 w_8) (- 0.001)))
(assert (<= (- w_0 w_9) 0.001))
(assert (>= (- w_0 w_9) (- 0.001)))
(assert (<= (- w_0 w_10) 0.001))
(assert (>= (- w_0 w_10) (- 0.001)))
(assert (<= (- w_0 w_11) 0.001))
(assert (>= (- w_0 w_11) (- 0.001)))
(assert (<= (- w_0 w_12) 0.001))
(assert (>= (- w_0 w_12) (- 0.001)))
(assert (<= (- w_0 w_13) 0.001))
(assert (>= (- w_0 w_13) (- 0.001)))
(assert (<= (- w_0 w_14) 0.001))
(assert (>= (- w_0 w_14) (- 0.001)))
(assert (<= (- w_0 w_15) 0.001))
(assert (>= (- w_0 w_15) (- 0.001)))
(assert (<= (- w_0 w_16) 0.001))
(assert (>= (- w_0 w_16) (- 0.001)))
(assert (<= (- w_0 w_17) 0.001))
(assert (>= (- w_0 w_17) (- 0.001)))
(assert (<= (- w_0 w_18) 0.001))
(assert (>= (- w_0 w_18) (- 0.001)))
(assert (<= (- w_0 w_19) 0.001))
(assert (>= (- w_0 w_19) (- 0.001)))
(assert (<= (- w_0 w_20) 0.001))
(assert (>= (- w_0 w_20) (- 0.001)))
(assert (<= (- w_0 w_21) 0.001))
(assert (>= (- w_0 w_21) (- 0.001)))
(assert (<= (- w_0 w_22) 0.001))
(assert (>= (- w_0 w_22) (- 0.001)))
(assert (<= (- w_0 w_23) 0.001))
(assert (>= (- w_0 w_23) (- 0.001)))
(assert (<= (- w_0 w_24) 0.001))
(assert (>= (- w_0 w_24) (- 0.001)))
(assert (<= (- w_0 w_25) 0.001))
(assert (>= (- w_0 w_25) (- 0.001)))
(assert (<= (- w_0 w_26) 0.001))
(assert (>= (- w_0 w_26) (- 0.001)))
(assert (<= (- w_0 w_27) 0.001))
(assert (>= (- w_0 w_27) (- 0.001)))
(assert (<= (- w_1 w_35) 0.001))
(assert (>= (- w_1 w_35) (- 0.001)))
(assert (<= (- w_1 w_36) 0.001))
(assert (>= (- w_1 w_36) (- 0.001)))
(assert (<= (- w_1 w_37) 0.001))
(assert (>= (- w_1 w_37) (- 0.001)))
(assert (<= (- w_1 w_38) 0.001))
(assert (>= (- w_1 w_38) (- 0.001)))
(assert (<= (- w_1 w_39) 0.001))
(assert (>= (- w_1 w_39) (- 0.001)))
(assert (<= (- w_4 w_28) 0.001))
(assert (>= (- w_4 w_28) (- 0.001)))
(assert (<= (- w_4 w_29) 0.001))
(assert (>= (- w_4 w_29) (- 0.001)))
(assert (<= (- w_4 w_30) 0.001))
(assert (>= (- w_4 w_30) (- 0.001)))
(assert (<= (- w_4 w_31) 0.001))
(assert (>= (- w_4 w_31) (- 0.001)))
(assert (<= (- w_4 w_32) 0.001))
(assert (>= (- w_4 w_32) (- 0.001)))
(assert (<= (- w_4 w_33) 0.001))
(assert (>= (- w_4 w_33) (- 0.001)))
(assert (<= (- w_4 w_34) 0.001))
(assert (>= (- w_4 w_34) (- 0.001)))
(assert (<= (- w_6 w_7) 0.001))
(assert (>= (- w_6 w_7) (- 0.001)))
(assert (<= (- w_6 w_8) 0.001))
(assert (>= (- w_6 w_8) (- 0.001)))
(assert (<= (- w_6 w_9) 0.001))
(assert (>= (- w_6 w_9) (- 0.001)))
(assert (<= (- w_6 w_10) 0.001))
(assert (>= (- w_6 w_10) (- 0.001)))
(assert (<= (- w_6 w_11) 0.001))
(assert (>= (- w_6 w_11) (- 0.001)))
(assert (<= (- w_6 w_12) 0.001))
(assert (>= (- w_6 w_12) (- 0.001)))
(assert (<= (- w_6 w_13) 0.001))
(assert (>= (- w_6 w_13) (- 0.001)))
(assert (<= (- w_6 w_14) 0.001))
(assert (>= (- w_6 w_14) (- 0.001)))
(assert (<= (- w_6 w_15) 0.001))
(assert (>= (- w_6 w_15) (- 0.001)))
(assert (<= (- w_6 w_16) 0.001))
(assert (>= (- w_6 w_16) (- 0.001)))
(assert (<= (- w_6 w_17) 0.001))
(assert (>= (- w_6 w_17) (- 0.001)))
(assert (<= (- w_6 w_18) 0.001))
(assert (>= (- w_6 w_18) (- 0.001)))
(assert (<= (- w_6 w_19) 0.001))
(assert (>= (- w_6 w_19) (- 0.001)))
(assert (<= (- w_6 w_20) 0.001))
(assert (>= (- w_6 w_20) (- 0.001)))
(assert (<= (- w_6 w_21) 0.001))
(assert (>= (- w_6 w_21) (- 0.001)))
(assert (<= (- w_6 w_22) 0.001))
(assert (>= (- w_6 w_22) (- 0.001)))
(assert (<= (- w_6 w_23) 0.001))
(assert (>= (- w_6 w_23) (- 0.001)))
(assert (<= (- w_6 w_24) 0.001))
(assert (>= (- w_6 w_24) (- 0.001)))
(assert (<= (- w_6 w_25) 0.001))
(assert (>= (- w_6 w_25) (- 0.001)))
(assert (<= (- w_6 w_26) 0.001))
(assert (>= (- w_6 w_26) (- 0.001)))
(assert (<= (- w_6 w_27) 0.001))
(assert (>= (- w_6 w_27) (- 0.001)))
(assert (<= (- w_7 w_8) 0.001))
(assert (>= (- w_7 w_8) (- 0.001)))
(assert (<= (- w_7 w_9) 0.001))
(assert (>= (- w_7 w_9) (- 0.001)))
(assert (<= (- w_7 w_10) 0.001))
(assert (>= (- w_7 w_10) (- 0.001)))
(assert (<= (- w_7 w_11) 0.001))
(assert (>= (- w_7 w_11) (- 0.001)))
(assert (<= (- w_7 w_12) 0.001))
(assert (>= (- w_7 w_12) (- 0.001)))
(assert (<= (- w_7 w_13) 0.001))
(assert (>= (- w_7 w_13) (- 0.001)))
(assert (<= (- w_7 w_14) 0.001))
(assert (>= (- w_7 w_14) (- 0.001)))
(assert (<= (- w_7 w_15) 0.001))
(assert (>= (- w_7 w_15) (- 0.001)))
(assert (<= (- w_7 w_16) 0.001))
(assert (>= (- w_7 w_16) (- 0.001)))
(assert (<= (- w_7 w_17) 0.001))
(assert (>= (- w_7 w_17) (- 0.001)))
(assert (<= (- w_7 w_18) 0.001))
(assert (>= (- w_7 w_18) (- 0.001)))
(assert (<= (- w_7 w_19) 0.001))
(assert (>= (- w_7 w_19) (- 0.001)))
(assert (<= (- w_7 w_20) 0.001))
(assert (>= (- w_7 w_20) (- 0.001)))
(assert (<= (- w_7 w_21) 0.001))
(assert (>= (- w_7 w_21) (- 0.001)))
(assert (<= (- w_7 w_22) 0.001))
(assert (>= (- w_7 w_22) (- 0.001)))
(assert (<= (- w_7 w_23) 0.001))
(assert (>= (- w_7 w_23) (- 0.001)))
(assert (<= (- w_7 w_24) 0.001))
(assert (>= (- w_7 w_24) (- 0.001)))
(assert (<= (- w_7 w_25) 0.001))
(assert (>= (- w_7 w_25) (- 0.001)))
(assert (<= (- w_7 w_26) 0.001))
(assert (>= (- w_7 w_26) (- 0.001)))
(assert (<= (- w_7 w_27) 0.001))
(assert (>= (- w_7 w_27) (- 0.001)))
(assert (<= (- w_8 w_9) 0.001))
(assert (>= (- w_8 w_9) (- 0.001)))
(assert (<= (- w_8 w_10) 0.001))
(assert (>= (- w_8 w_10) (- 0.001)))
(assert (<= (- w_8 w_11) 0.001))
(assert (>= (- w_8 w_11) (- 0.001)))
(assert (<= (- w_8 w_12) 0.001))
(assert (>= (- w_8 w_12) (- 0.001)))
(assert (<= (- w_8 w_13) 0.001))
(assert (>= (- w_8 w_13) (- 0.001)))
(assert (<= (- w_8 w_14) 0.001))
(assert (>= (- w_8 w_14) (- 0.001)))
(assert (<= (- w_8 w_15) 0.001))
(assert (>= (- w_8 w_15) (- 0.001)))
(assert (<= (- w_8 w_16) 0.001))
(assert (>= (- w_8 w_16) (- 0.001)))
(assert (<= (- w_8 w_17) 0.001))
(assert (>= (- w_8 w_17) (- 0.001)))
(assert (<= (- w_8 w_18) 0.001))
(assert (>= (- w_8 w_18) (- 0.001)))
(assert (<= (- w_8 w_19) 0.001))
(assert (>= (- w_8 w_19) (- 0.001)))
(assert (<= (- w_8 w_20) 0.001))
(assert (>= (- w_8 w_20) (- 0.001)))
(assert (<= (- w_8 w_21) 0.001))
(assert (>= (- w_8 w_21) (- 0.001)))
(assert (<= (- w_8 w_22) 0.001))
(assert (>= (- w_8 w_22) (- 0.001)))
(assert (<= (- w_8 w_23) 0.001))
(assert (>= (- w_8 w_23) (- 0.001)))
(assert (<= (- w_8 w_24) 0.001))
(assert (>= (- w_8 w_24) (- 0.001)))
(assert (<= (- w_8 w_25) 0.001))
(assert (>= (- w_8 w_25) (- 0.001)))
(assert (<= (- w_8 w_26) 0.001))
(assert (>= (- w_8 w_26) (- 0.001)))
(assert (<= (- w_8 w_27) 0.001))
(assert (>= (- w_8 w_27) (- 0.001)))
(assert (<= (- w_9 w_10) 0.001))
(assert (>= (- w_9 w_10) (- 0.001)))
(assert (<= (- w_9 w_11) 0.001))
(assert (>= (- w_9 w_11) (- 0.001)))
(assert (<= (- w_9 w_12) 0.001))
(assert (>= (- w_9 w_12) (- 0.001)))
(assert (<= (- w_9 w_13) 0.001))
(assert (>= (- w_9 w_13) (- 0.001)))
(assert (<= (- w_9 w_14) 0.001))
(assert (>= (- w_9 w_14) (- 0.001)))
(assert (<= (- w_9 w_15) 0.001))
(assert (>= (- w_9 w_15) (- 0.001)))
(assert (<= (- w_9 w_16) 0.001))
(assert (>= (- w_9 w_16) (- 0.001)))
(assert (<= (- w_9 w_17) 0.001))
(assert (>= (- w_9 w_17) (- 0.001)))
(assert (<= (- w_9 w_18) 0.001))
(assert (>= (- w_9 w_18) (- 0.001)))
(assert (<= (- w_9 w_19) 0.001))
(assert (>= (- w_9 w_19) (- 0.001)))
(assert (<= (- w_9 w_20) 0.001))
(assert (>= (- w_9 w_20) (- 0.001)))
(assert (<= (- w_9 w_21) 0.001))
(assert (>= (- w_9 w_21) (- 0.001)))
(assert (<= (- w_9 w_22) 0.001))
(assert (>= (- w_9 w_22) (- 0.001)))
(assert (<= (- w_9 w_23) 0.001))
(assert (>= (- w_9 w_23) (- 0.001)))
(assert (<= (- w_9 w_24) 0.001))
(assert (>= (- w_9 w_24) (- 0.001)))
(assert (<= (- w_9 w_25) 0.001))
(assert (>= (- w_9 w_25) (- 0.001)))
(assert (<= (- w_9 w_26) 0.001))
(assert (>= (- w_9 w_26) (- 0.001)))
(assert (<= (- w_9 w_27) 0.001))
(assert (>= (- w_9 w_27) (- 0.001)))
(assert (<= (- w_10 w_11) 0.001))
(assert (>= (- w_10 w_11) (- 0.001)))
(assert (<= (- w_10 w_12) 0.001))
(assert (>= (- w_10 w_12) (- 0.001)))
(assert (<= (- w_10 w_13) 0.001))
(assert (>= (- w_10 w_13) (- 0.001)))
(assert (<= (- w_10 w_14) 0.001))
(assert (>= (- w_10 w_14) (- 0.001)))
(assert (<= (- w_10 w_15) 0.001))
(assert (>= (- w_10 w_15) (- 0.001)))
(assert (<= (- w_10 w_16) 0.001))
(assert (>= (- w_10 w_16) (- 0.001)))
(assert (<= (- w_10 w_17) 0.001))
(assert (>= (- w_10 w_17) (- 0.001)))
(assert (<= (- w_10 w_18) 0.001))
(assert (>= (- w_10 w_18) (- 0.001)))
(assert (<= (- w_10 w_19) 0.001))
(assert (>= (- w_10 w_19) (- 0.001)))
(assert (<= (- w_10 w_20) 0.001))
(assert (>= (- w_10 w_20) (- 0.001)))
(assert (<= (- w_10 w_21) 0.001))
(assert (>= (- w_10 w_21) (- 0.001)))
(assert (<= (- w_10 w_22) 0.001))
(assert (>= (- w_10 w_22) (- 0.001)))
(assert (<= (- w_10 w_23) 0.001))
(assert (>= (- w_10 w_23) (- 0.001)))
(assert (<= (- w_10 w_24) 0.001))
(assert (>= (- w_10 w_24) (- 0.001)))
(assert (<= (- w_10 w_25) 0.001))
(assert (>= (- w_10 w_25) (- 0.001)))
(assert (<= (- w_10 w_26) 0.001))
(assert (>= (- w_10 w_26) (- 0.001)))
(assert (<= (- w_10 w_27) 0.001))
(assert (>= (- w_10 w_27) (- 0.001)))
(assert (<= (- w_11 w_12) 0.001))
(assert (>= (- w_11 w_12) (- 0.001)))
(assert (<= (- w_11 w_13) 0.001))
(assert (>= (- w_11 w_13) (- 0.001)))
(assert (<= (- w_11 w_14) 0.001))
(assert (>= (- w_11 w_14) (- 0.001)))
(assert (<= (- w_11 w_15) 0.001))
(assert (>= (- w_11 w_15) (- 0.001)))
(assert (<= (- w_11 w_16) 0.001))
(assert (>= (- w_11 w_16) (- 0.001)))
(assert (<= (- w_11 w_17) 0.001))
(assert (>= (- w_11 w_17) (- 0.001)))
(assert (<= (- w_11 w_18) 0.001))
(assert (>= (- w_11 w_18) (- 0.001)))
(assert (<= (- w_11 w_19) 0.001))
(assert (>= (- w_11 w_19) (- 0.001)))
(assert (<= (- w_11 w_20) 0.001))
(assert (>= (- w_11 w_20) (- 0.001)))
(assert (<= (- w_11 w_21) 0.001))
(assert (>= (- w_11 w_21) (- 0.001)))
(assert (<= (- w_11 w_22) 0.001))
(assert (>= (- w_11 w_22) (- 0.001)))
(assert (<= (- w_11 w_23) 0.001))
(assert (>= (- w_11 w_23) (- 0.001)))
(assert (<= (- w_11 w_24) 0.001))
(assert (>= (- w_11 w_24) (- 0.001)))
(assert (<= (- w_11 w_25) 0.001))
(assert (>= (- w_11 w_25) (- 0.001)))
(assert (<= (- w_11 w_26) 0.001))
(assert (>= (- w_11 w_26) (- 0.001)))
(assert (<= (- w_11 w_27) 0.001))
(assert (>= (- w_11 w_27) (- 0.001)))
(assert (<= (- w_12 w_13) 0.001))
(assert (>= (- w_12 w_13) (- 0.001)))
(assert (<= (- w_12 w_14) 0.001))
(assert (>= (- w_12 w_14) (- 0.001)))
(assert (<= (- w_12 w_15) 0.001))
(assert (>= (- w_12 w_15) (- 0.001)))
(assert (<= (- w_12 w_16) 0.001))
(assert (>= (- w_12 w_16) (- 0.001)))
(assert (<= (- w_12 w_17) 0.001))
(assert (>= (- w_12 w_17) (- 0.001)))
(assert (<= (- w_12 w_18) 0.001))
(assert (>= (- w_12 w_18) (- 0.001)))
(assert (<= (- w_12 w_19) 0.001))
(assert (>= (- w_12 w_19) (- 0.001)))
(assert (<= (- w_12 w_20) 0.001))
(assert (>= (- w_12 w_20) (- 0.001)))
(assert (<= (- w_12 w_21) 0.001))
(assert (>= (- w_12 w_21) (- 0.001)))
(assert (<= (- w_12 w_22) 0.001))
(assert (>= (- w_12 w_22) (- 0.001)))
(assert (<= (- w_12 w_23) 0.001))
(assert (>= (- w_12 w_23) (- 0.001)))
(assert (<= (- w_12 w_24) 0.001))
(assert (>= (- w_12 w_24) (- 0.001)))
(assert (<= (- w_12 w_25) 0.001))
(assert (>= (- w_12 w_25) (- 0.001)))
(assert (<= (- w_12 w_26) 0.001))
(assert (>= (- w_12 w_26) (- 0.001)))
(assert (<= (- w_12 w_27) 0.001))
(assert (>= (- w_12 w_27) (- 0.001)))
(assert (<= (- w_13 w_14) 0.001))
(assert (>= (- w_13 w_14) (- 0.001)))
(assert (<= (- w_13 w_15) 0.001))
(assert (>= (- w_13 w_15) (- 0.001)))
(assert (<= (- w_13 w_16) 0.001))
(assert (>= (- w_13 w_16) (- 0.001)))
(assert (<= (- w_13 w_17) 0.001))
(assert (>= (- w_13 w_17) (- 0.001)))
(assert (<= (- w_13 w_18) 0.001))
(assert (>= (- w_13 w_18) (- 0.001)))
(assert (<= (- w_13 w_19) 0.001))
(assert (>= (- w_13 w_19) (- 0.001)))
(assert (<= (- w_13 w_20) 0.001))
(assert (>= (- w_13 w_20) (- 0.001)))
(assert (<= (- w_13 w_21) 0.001))
(assert (>= (- w_13 w_21) (- 0.001)))
(assert (<= (- w_13 w_22) 0.001))
(assert (>= (- w_13 w_22) (- 0.001)))
(assert (<= (- w_13 w_23) 0.001))
(assert (>= (- w_13 w_23) (- 0.001)))
(assert (<= (- w_13 w_24) 0.001))
(assert (>= (- w_13 w_24) (- 0.001)))
(assert (<= (- w_13 w_25) 0.001))
(assert (>= (- w_13 w_25) (- 0.001)))
(assert (<= (- w_13 w_26) 0.001))
(assert (>= (- w_13 w_26) (- 0.001)))
(assert (<= (- w_13 w_27) 0.001))
(assert (>= (- w_13 w_27) (- 0.001)))
(assert (<= (- w_14 w_15) 0.001))
(assert (>= (- w_14 w_15) (- 0.001)))
(assert (<= (- w_14 w_16) 0.001))
(assert (>= (- w_14 w_16) (- 0.001)))
(assert (<= (- w_14 w_17) 0.001))
(assert (>= (- w_14 w_17) (- 0.001)))
(assert (<= (- w_14 w_18) 0.001))
(assert (>= (- w_14 w_18) (- 0.001)))
(assert (<= (- w_14 w_19) 0.001))
(assert (>= (- w_14 w_19) (- 0.001)))
(assert (<= (- w_14 w_20) 0.001))
(assert (>= (- w_14 w_20) (- 0.001)))
(assert (<= (- w_14 w_21) 0.001))
(assert (>= (- w_14 w_21) (- 0.001)))
(assert (<= (- w_14 w_22) 0.001))
(assert (>= (- w_14 w_22) (- 0.001)))
(assert (<= (- w_14 w_23) 0.001))
(assert (>= (- w_14 w_23) (- 0.001)))
(assert (<= (- w_14 w_24) 0.001))
(assert (>= (- w_14 w_24) (- 0.001)))
(assert (<= (- w_14 w_25) 0.001))
(assert (>= (- w_14 w_25) (- 0.001)))
(assert (<= (- w_14 w_26) 0.001))
(assert (>= (- w_14 w_26) (- 0.001)))
(assert (<= (- w_14 w_27) 0.001))
(assert (>= (- w_14 w_27) (- 0.001)))
(assert (<= (- w_15 w_16) 0.001))
(assert (>= (- w_15 w_16) (- 0.001)))
(assert (<= (- w_15 w_17) 0.001))
(assert (>= (- w_15 w_17) (- 0.001)))
(assert (<= (- w_15 w_18) 0.001))
(assert (>= (- w_15 w_18) (- 0.001)))
(assert (<= (- w_15 w_19) 0.001))
(assert (>= (- w_15 w_19) (- 0.001)))
(assert (<= (- w_15 w_20) 0.001))
(assert (>= (- w_15 w_20) (- 0.001)))
(assert (<= (- w_15 w_21) 0.001))
(assert (>= (- w_15 w_21) (- 0.001)))
(assert (<= (- w_15 w_22) 0.001))
(assert (>= (- w_15 w_22) (- 0.001)))
(assert (<= (- w_15 w_23) 0.001))
(assert (>= (- w_15 w_23) (- 0.001)))
(assert (<= (- w_15 w_24) 0.001))
(assert (>= (- w_15 w_24) (- 0.001)))
(assert (<= (- w_15 w_25) 0.001))
(assert (>= (- w_15 w_25) (- 0.001)))
(assert (<= (- w_15 w_26) 0.001))
(assert (>= (- w_15 w_26) (- 0.001)))
(assert (<= (- w_15 w_27) 0.001))
(assert (>= (- w_15 w_27) (- 0.001)))
(assert (<= (- w_16 w_17) 0.001))
(assert (>= (- w_16 w_17) (- 0.001)))
(assert (<= (- w_16 w_18) 0.001))
(assert (>= (- w_16 w_18) (- 0.001)))
(assert (<= (- w_16 w_19) 0.001))
(assert (>= (- w_16 w_19) (- 0.001)))
(assert (<= (- w_16 w_20) 0.001))
(assert (>= (- w_16 w_20) (- 0.001)))
(assert (<= (- w_16 w_21) 0.001))
(assert (>= (- w_16 w_21) (- 0.001)))
(assert (<= (- w_16 w_22) 0.001))
(assert (>= (- w_16 w_22) (- 0.001)))
(assert (<= (- w_16 w_23) 0.001))
(assert (>= (- w_16 w_23) (- 0.001)))
(assert (<= (- w_16 w_24) 0.001))
(assert (>= (- w_16 w_24) (- 0.001)))
(assert (<= (- w_16 w_25) 0.001))
(assert (>= (- w_16 w_25) (- 0.001)))
(assert (<= (- w_16 w_26) 0.001))
(assert (>= (- w_16 w_26) (- 0.001)))
(assert (<= (- w_16 w_27) 0.001))
(assert (>= (- w_16 w_27) (- 0.001)))
(assert (<= (- w_17 w_18) 0.001))
(assert (>= (- w_17 w_18) (- 0.001)))
(assert (<= (- w_17 w_19) 0.001))
(assert (>= (- w_17 w_19) (- 0.001)))
(assert (<= (- w_17 w_20) 0.001))
(assert (>= (- w_17 w_20) (- 0.001)))
(assert (<= (- w_17 w_21) 0.001))
(assert (>= (- w_17 w_21) (- 0.001)))
(assert (<= (- w_17 w_22) 0.001))
(assert (>= (- w_17 w_22) (- 0.001)))
(assert (<= (- w_17 w_23) 0.001))
(assert (>= (- w_17 w_23) (- 0.001)))
(assert (<= (- w_17 w_24) 0.001))
(assert (>= (- w_17 w_24) (- 0.001)))
(assert (<= (- w_17 w_25) 0.001))
(assert (>= (- w_17 w_25) (- 0.001)))
(assert (<= (- w_17 w_26) 0.001))
(assert (>= (- w_17 w_26) (- 0.001)))
(assert (<= (- w_17 w_27) 0.001))
(assert (>= (- w_17 w_27) (- 0.001)))
(assert (<= (- w_18 w_19) 0.001))
(assert (>= (- w_18 w_19) (- 0.001)))
(assert (<= (- w_18 w_20) 0.001))
(assert (>= (- w_18 w_20) (- 0.001)))
(assert (<= (- w_18 w_21) 0.001))
(assert (>= (- w_18 w_21) (- 0.001)))
(assert (<= (- w_18 w_22) 0.001))
(assert (>= (- w_18 w_22) (- 0.001)))
(assert (<= (- w_18 w_23) 0.001))
(assert (>= (- w_18 w_23) (- 0.001)))
(assert (<= (- w_18 w_24) 0.001))
(assert (>= (- w_18 w_24) (- 0.001)))
(assert (<= (- w_18 w_25) 0.001))
(assert (>= (- w_18 w_25) (- 0.001)))
(assert (<= (- w_18 w_26) 0.001))
(assert (>= (- w_18 w_26) (- 0.001)))
(assert (<= (- w_18 w_27) 0.001))
(assert (>= (- w_18 w_27) (- 0.001)))
(assert (<= (- w_19 w_20) 0.001))
(assert (>= (- w_19 w_20) (- 0.001)))
(assert (<= (- w_19 w_21) 0.001))
(assert (>= (- w_19 w_21) (- 0.001)))
(assert (<= (- w_19 w_22) 0.001))
(assert (>= (- w_19 w_22) (- 0.001)))
(assert (<= (- w_19 w_23) 0.001))
(assert (>= (- w_19 w_23) (- 0.001)))
(assert (<= (- w_19 w_24) 0.001))
(assert (>= (- w_19 w_24) (- 0.001)))
(assert (<= (- w_19 w_25) 0.001))
(assert (>= (- w_19 w_25) (- 0.001)))
(assert (<= (- w_19 w_26) 0.001))
(assert (>= (- w_19 w_26) (- 0.001)))
(assert (<= (- w_19 w_27) 0.001))
(assert (>= (- w_19 w_27) (- 0.001)))
(assert (<= (- w_20 w_21) 0.001))
(assert (>= (- w_20 w_21) (- 0.001)))
(assert (<= (- w_20 w_22) 0.001))
(assert (>= (- w_20 w_22) (- 0.001)))
(assert (<= (- w_20 w_23) 0.001))
(assert (>= (- w_20 w_23) (- 0.001)))
(assert (<= (- w_20 w_24) 0.001))
(assert (>= (- w_20 w_24) (- 0.001)))
(assert (<= (- w_20 w_25) 0.001))
(assert (>= (- w_20 w_25) (- 0.001)))
(assert (<= (- w_20 w_26) 0.001))
(assert (>= (- w_20 w_26) (- 0.001)))
(assert (<= (- w_20 w_27) 0.001))
(assert (>= (- w_20 w_27) (- 0.001)))
(assert (<= (- w_21 w_22) 0.001))
(assert (>= (- w_21 w_22) (- 0.001)))
(assert (<= (- w_21 w_23) 0.001))
(assert (>= (- w_21 w_23) (- 0.001)))
(assert (<= (- w_21 w_24) 0.001))
(assert (>= (- w_21 w_24) (- 0.001)))
(assert (<= (- w_21 w_25) 0.001))
(assert (>= (- w_21 w_25) (- 0.001)))
(assert (<= (- w_21 w_26) 0.001))
(assert (>= (- w_21 w_26) (- 0.001)))
(assert (<= (- w_21 w_27) 0.001))
(assert (>= (- w_21 w_27) (- 0.001)))
(assert (<= (- w_22 w_23) 0.001))
(assert (>= (- w_22 w_23) (- 0.001)))
(assert (<= (- w_22 w_24) 0.001))
(assert (>= (- w_22 w_24) (- 0.001)))
(assert (<= (- w_22 w_25) 0.001))
(assert (>= (- w_22 w_25) (- 0.001)))
(assert (<= (- w_22 w_26) 0.001))
(assert (>= (- w_22 w_26) (- 0.001)))
(assert (<= (- w_22 w_27) 0.001))
(assert (>= (- w_22 w_27) (- 0.001)))
(assert (<= (- w_23 w_24) 0.001))
(assert (>= (- w_23 w_24) (- 0.001)))
(assert (<= (- w_23 w_25) 0.001))
(assert (>= (- w_23 w_25) (- 0.001)))
(assert (<= (- w_23 w_26) 0.001))
(assert (>= (- w_23 w_26) (- 0.001)))
(assert (<= (- w_23 w_27) 0.001))
(assert (>= (- w_23 w_27) (- 0.001)))
(assert (<= (- w_24 w_25) 0.001))
(assert (>= (- w_24 w_25) (- 0.001)))
(assert (<= (- w_24 w_26) 0.001))
(assert (>= (- w_24 w_26) (- 0.001)))
(assert (<= (- w_24 w_27) 0.001))
(assert (>= (- w_24 w_27) (- 0.001)))
(assert (<= (- w_25 w_26) 0.001))
(assert (>= (- w_25 w_26) (- 0.001)))
(assert (<= (- w_25 w_27) 0.001))
(assert (>= (- w_25 w_27) (- 0.001)))
(assert (<= (- w_26 w_27) 0.001))
(assert (>= (- w_26 w_27) (- 0.001)))
(assert (<= (- w_28 w_29) 0.001))
(assert (>= (- w_28 w_29) (- 0.001)))
(assert (<= (- w_28 w_30) 0.001))
(assert (>= (- w_28 w_30) (- 0.001)))
(assert (<= (- w_28 w_31) 0.001))
(assert (>= (- w_28 w_31) (- 0.001)))
(assert (<= (- w_28 w_32) 0.001))
(assert (>= (- w_28 w_32) (- 0.001)))
(assert (<= (- w_28 w_33) 0.001))
(assert (>= (- w_28 w_33) (- 0.001)))
(assert (<= (- w_28 w_34) 0.001))
(assert (>= (- w_28 w_34) (- 0.001)))
(assert (<= (- w_29 w_30) 0.001))
(assert (>= (- w_29 w_30) (- 0.001)))
(assert (<= (- w_29 w_31) 0.001))
(assert (>= (- w_29 w_31) (- 0.001)))
(assert (<= (- w_29 w_32) 0.001))
(assert (>= (- w_29 w_32) (- 0.001)))
(assert (<= (- w_29 w_33) 0.001))
(assert (>= (- w_29 w_33) (- 0.001)))
(assert (<= (- w_29 w_34) 0.001))
(assert (>= (- w_29 w_34) (- 0.001)))
(assert (<= (- w_30 w_31) 0.001))
(assert (>= (- w_30 w_31) (- 0.001)))
(assert (<= (- w_30 w_32) 0.001))
(assert (>= (- w_30 w_32) (- 0.001)))
(assert (<= (- w_30 w_33) 0.001))
(assert (>= (- w_30 w_33) (- 0.001)))
(assert (<= (- w_30 w_34) 0.001))
(assert (>= (- w_30 w_34) (- 0.001)))
(assert (<= (- w_31 w_32) 0.001))
(assert (>= (- w_31 w_32) (- 0.001)))
(assert (<= (- w_31 w_33) 0.001))
(assert (>= (- w_31 w_33) (- 0.001)))
(assert (<= (- w_31 w_34) 0.001))
(assert (>= (- w_31 w_34) (- 0.001)))
(assert (<= (- w_32 w_33) 0.001))
(assert (>= (- w_32 w_33) (- 0.001)))
(assert (<= (- w_32 w_34) 0.001))
(assert (>= (- w_32 w_34) (- 0.001)))
(assert (<= (- w_33 w_34) 0.001))
(assert (>= (- w_33 w_34) (- 0.001)))
(assert (<= (- w_35 w_36) 0.001))
(assert (>= (- w_35 w_36) (- 0.001)))
(assert (<= (- w_35 w_37) 0.001))
(assert (>= (- w_35 w_37) (- 0.001)))
(assert (<= (- w_35 w_38) 0.001))
(assert (>= (- w_35 w_38) (- 0.001)))
(assert (<= (- w_35 w_39) 0.001))
(assert (>= (- w_35 w_39) (- 0.001)))
(assert (<= (- w_36 w_37) 0.001))
(assert (>= (- w_36 w_37) (- 0.001)))
(assert (<= (- w_36 w_38) 0.001))
(assert (>= (- w_36 w_38) (- 0.001)))
(assert (<= (- w_36 w_39) 0.001))
(assert (>= (- w_36 w_39) (- 0.001)))
(assert (<= (- w_37 w_38) 0.001))
(assert (>= (- w_37 w_38) (- 0.001)))
(assert (<= (- w_37 w_39) 0.001))
(assert (>= (- w_37 w_39) (- 0.001)))
(assert (<= (- w_38 w_39) 0.001))
(assert (>= (- w_38 w_39) (- 0.001)))

; --- dummy: zero-contribution sources have zero weight ---
(assert (<= w_2 0.001))
(assert (>= w_2 (- 0.001)))
(assert (<= w_3 0.001))
(assert (>= w_3 (- 0.001)))
(assert (<= w_5 0.001))
(assert (>= w_5 (- 0.001)))

(check-sat)
(get-model)
